Maximize
  - 3.9518245025925 edge_0_1_0_0 - 1.5037636492296 edge_0_2_0_0
   - 1.6660629525239 edge_0_3_0_0 - 5.129763433853801 edge_0_4_0_0
   - 3.4288859121594 edge_0_6_0_0 - 4.6981573077906 edge_0_8_0_0
   - 4.2853064525384 edge_0_9_0_0 - 2.721644228023 edge_0_10_0_0
   - 4.0467576411528 edge_0_11_0_0 - 5.052313475215001 edge_0_12_0_0
   - 3.49419790348 edge_0_13_0_0 - 0.2357221577115229 edge_1_2_0_0
   - 0.0844249254726856 edge_1_3_0_0 - 0.766936136698239 edge_1_11_0_0
   - 0.0520103984499226 edge_2_1_0_0 + 1.082855165828071 edge_2_2_0_0
   + 1.606663026194348 edge_2_3_0_0 + 0.5670342628036404 edge_2_4_0_0
   - 0.1963760765675316 edge_2_5_0_0 - 0.3259821061418599 edge_2_6_0_0
   - 0.1881089983190359 edge_2_8_0_0 + 0.667247022632986 edge_2_9_0_0
   + 0.3185880264822668 edge_2_10_0_0 + 0.9219359018562 edge_2_11_0_0
   - 0.1388047424937655 edge_2_13_0_0 + 2.0736348997584 edge_2_14_0_0
   + 1.252945680706552 edge_3_1_0_0 + 2.971281862149558 edge_3_2_0_0
   + 0.0632923531254618 edge_3_4_0_0 - 0.1750129964574535 edge_3_5_0_0
   - 0.6474800527775915 edge_3_6_0_0 - 1.6138331734568 edge_3_7_0_0
   - 1.299428227100149 edge_3_8_0_0 + 1.194682465549463 edge_3_9_0_0
   + 0.5848194346125274 edge_3_10_0_0 + 0.99495560364902 edge_3_11_0_0
   - 0.9593789050230656 edge_3_12_0_0 - 1.587359266228269 edge_3_13_0_0
   + 3.954428566900905 edge_3_14_0_0 - 1.838920546471665 edge_4_1_0_0
   + 0.3529763651603449 edge_4_2_0_0 - 0.9307969729146414 edge_4_3_0_0
   - 0.0811374303518323 edge_4_5_0_0 - 0.554498589683273 edge_4_6_0_0
   - 0.71209274068992 edge_4_7_0_0 + 0.6956337827104226 edge_4_9_0_0
   + 0.11366907866782 edge_4_11_0_0 - 0.10578857052812 edge_4_14_0_0
   - 0.3759028051041231 edge_5_4_0_0 + 0.570034560346193 edge_5_6_0_0
   + 0.21547245591916 edge_5_7_0_0 + 0.6237038781500125 edge_5_8_0_0
   - 0.3612029032057625 edge_5_12_0_0 + 0.1739602913110826 edge_5_13_0_0
   - 1.02367865716876 edge_6_1_0_0 - 0.4527455553801254 edge_6_2_0_0
   - 0.7211336461544335 edge_6_3_0_0 + 0.0565784673773451 edge_6_4_0_0
   + 2.154261827977691 edge_6_5_0_0 + 0.6487307391888399 edge_6_7_0_0
   + 1.148986167709205 edge_6_8_0_0 - 0.099614475352251 edge_6_10_0_0
   + 1.468226740110652 edge_6_11_0_0 + 0.3655327205321421 edge_6_12_0_0
   + 0.7467871705930489 edge_6_13_0_0 + 0.3484029448756422 edge_6_14_0_0
   - 0.33179867676672 edge_7_4_0_0 + 0.19248505486188 edge_7_5_0_0
   + 0.8105693997791652 edge_7_6_0_0 + 0.78006823225224 edge_7_8_0_0
   - 0.09896048045475 edge_7_12_0_0 + 0.3793887723666 edge_7_13_0_0
   - 0.66040721411448 edge_7_14_0_0 - 1.31569611108819 edge_8_1_0_0
   - 0.7002807328484473 edge_8_2_0_0 - 1.453126834581289 edge_8_3_0_0
   + 0.936384745965592 edge_8_4_0_0 + 2.011583284315008 edge_8_5_0_0
   + 2.572082601503446 edge_8_6_0_0 + 3.7742617702276 edge_8_7_0_0
   - 0.5932211516897926 edge_8_9_0_0 + 0.1390001105052235 edge_8_10_0_0
   + 1.142174318467796 edge_8_11_0_0 + 0.5966499857226497 edge_8_12_0_0
   + 1.509001806080073 edge_8_13_0_0 + 0.5557499211283801 edge_8_14_0_0
   + 0.4401602009396622 edge_9_2_0_0 + 0.3311742196737376 edge_9_3_0_0
   + 1.464295539929976 edge_9_4_0_0 - 0.4404896179754133 edge_9_5_0_0
   - 0.3481755157854755 edge_9_6_0_0 - 0.5769510526105709 edge_9_8_0_0
   + 0.5829213583604302 edge_9_10_0_0 + 0.45746020362211 edge_9_11_0_0
   - 0.0850565346809275 edge_9_13_0_0 + 0.8473987720149699 edge_9_14_0_0
   - 0.7346635373290862 edge_10_2_0_0 + 0.3278339521793527 edge_10_4_0_0
   + 0.0320168965268678 edge_10_5_0_0 - 0.4259150544368906 edge_10_6_0_0
   + 0.4453016436734 edge_10_7_0_0 - 0.7333139445993603 edge_10_8_0_0
   - 0.4321843307233804 edge_10_9_0_0 + 0.76290220666176 edge_10_11_0_0
   - 0.0643745409412057 edge_10_12_0_0 + 0.2077129856339102 edge_10_13_0_0
   + 0.9001359382483201 edge_10_14_0_0 - 0.4062428054301289 edge_11_1_0_0
   + 1.292383921224 edge_11_2_0_0 + 1.1944621138645 edge_11_3_0_0
   + 2.6093478405224 edge_11_4_0_0 + 0.88663698252992 edge_11_5_0_0
   + 2.002831648149636 edge_11_6_0_0 + 2.0619256531076 edge_11_7_0_0
   + 2.253139448682299 edge_11_8_0_0 + 1.1295137135269 edge_11_9_0_0
   + 3.9496691017056 edge_11_10_0_0 + 1.644479614762696 edge_11_12_0_0
   + 3.7539044066741 edge_11_13_0_0 + 3.74925 edge_11_14_0_0
   - 0.6614095744250941 edge_12_1_0_0 - 1.097146020797151 edge_12_2_0_0
   - 1.793732995289835 edge_12_3_0_0 + 0.1296695336006546 edge_12_4_0_0
   + 0.0589954444276067 edge_12_5_0_0 + 0.4991814026897772 edge_12_6_0_0
   + 0.5231202536042501 edge_12_7_0_0 + 1.790911947471014 edge_12_8_0_0
   - 0.9418149346786441 edge_12_14_0_0 - 0.8705911376678639 edge_13_1_0_0
   + 0.5457670221621653 edge_13_2_0_0 - 0.4349858990090639 edge_13_3_0_0
   + 1.830390740894497 edge_13_4_0_0 + 2.471386064288272 edge_13_5_0_0
   + 2.172307412366771 edge_13_6_0_0 + 2.782568330458 edge_13_7_0_0
   + 2.444862812513781 edge_13_8_0_0 + 0.433909730641978 edge_13_9_0_0
   + 1.801005073586442 edge_13_10_0_0 + 1.6336175659062 edge_13_11_0_0
   + 3.579789058122777 edge_13_12_0_0 + 1.340598002506 edge_13_14_0_0
Subject To
 one_parent_1: edge_0_1_0_0 + edge_2_1_0_0 + edge_3_1_0_0 + edge_4_1_0_0
   + edge_6_1_0_0 + edge_8_1_0_0 + edge_11_1_0_0 + edge_12_1_0_0
   + edge_13_1_0_0 = 1
 consume_one_flow_unit_1: flow_0_1_0_0 - flow_1_2_0_0 - flow_1_3_0_0
   - flow_1_11_0_0 + flow_2_1_0_0 + flow_3_1_0_0 + flow_4_1_0_0
   + flow_6_1_0_0 + flow_8_1_0_0 + flow_11_1_0_0 + flow_12_1_0_0
   + flow_13_1_0_0 = 1
 one_parent_2: edge_0_2_0_0 + edge_1_2_0_0 + edge_2_2_0_0 + edge_3_2_0_0
   + edge_4_2_0_0 + edge_6_2_0_0 + edge_8_2_0_0 + edge_9_2_0_0
   + edge_10_2_0_0 + edge_11_2_0_0 + edge_12_2_0_0 + edge_13_2_0_0 = 1
 consume_one_flow_unit_2: flow_0_2_0_0 + flow_1_2_0_0 - flow_2_1_0_0
   - flow_2_3_0_0 - flow_2_4_0_0 - flow_2_5_0_0 - flow_2_6_0_0
   - flow_2_8_0_0 - flow_2_9_0_0 - flow_2_10_0_0 - flow_2_11_0_0
   - flow_2_13_0_0 - flow_2_14_0_0 + flow_3_2_0_0 + flow_4_2_0_0
   + flow_6_2_0_0 + flow_8_2_0_0 + flow_9_2_0_0 + flow_10_2_0_0
   + flow_11_2_0_0 + flow_12_2_0_0 + flow_13_2_0_0 = 1
 one_parent_3: edge_0_3_0_0 + edge_1_3_0_0 + edge_2_3_0_0 + edge_4_3_0_0
   + edge_6_3_0_0 + edge_8_3_0_0 + edge_9_3_0_0 + edge_11_3_0_0
   + edge_12_3_0_0 + edge_13_3_0_0 = 1
 consume_one_flow_unit_3: flow_0_3_0_0 + flow_1_3_0_0 + flow_2_3_0_0
   - flow_3_1_0_0 - flow_3_2_0_0 - flow_3_4_0_0 - flow_3_5_0_0
   - flow_3_6_0_0 - flow_3_7_0_0 - flow_3_8_0_0 - flow_3_9_0_0
   - flow_3_10_0_0 - flow_3_11_0_0 - flow_3_12_0_0 - flow_3_13_0_0
   - flow_3_14_0_0 + flow_4_3_0_0 + flow_6_3_0_0 + flow_8_3_0_0
   + flow_9_3_0_0 + flow_11_3_0_0 + flow_12_3_0_0 + flow_13_3_0_0 = 1
 one_parent_4: edge_0_4_0_0 + edge_2_4_0_0 + edge_3_4_0_0 + edge_5_4_0_0
   + edge_6_4_0_0 + edge_7_4_0_0 + edge_8_4_0_0 + edge_9_4_0_0
   + edge_10_4_0_0 + edge_11_4_0_0 + edge_12_4_0_0 + edge_13_4_0_0 = 1
 consume_one_flow_unit_4: flow_0_4_0_0 + flow_2_4_0_0 + flow_3_4_0_0
   - flow_4_1_0_0 - flow_4_2_0_0 - flow_4_3_0_0 - flow_4_5_0_0
   - flow_4_6_0_0 - flow_4_7_0_0 - flow_4_9_0_0 - flow_4_11_0_0
   - flow_4_14_0_0 + flow_5_4_0_0 + flow_6_4_0_0 + flow_7_4_0_0
   + flow_8_4_0_0 + flow_9_4_0_0 + flow_10_4_0_0 + flow_11_4_0_0
   + flow_12_4_0_0 + flow_13_4_0_0 = 1
 one_parent_5: edge_2_5_0_0 + edge_3_5_0_0 + edge_4_5_0_0 + edge_6_5_0_0
   + edge_7_5_0_0 + edge_8_5_0_0 + edge_9_5_0_0 + edge_10_5_0_0
   + edge_11_5_0_0 + edge_12_5_0_0 + edge_13_5_0_0 = 1
 consume_one_flow_unit_5: flow_2_5_0_0 + flow_3_5_0_0 + flow_4_5_0_0
   - flow_5_4_0_0 - flow_5_6_0_0 - flow_5_7_0_0 - flow_5_8_0_0
   - flow_5_12_0_0 - flow_5_13_0_0 + flow_6_5_0_0 + flow_7_5_0_0
   + flow_8_5_0_0 + flow_9_5_0_0 + flow_10_5_0_0 + flow_11_5_0_0
   + flow_12_5_0_0 + flow_13_5_0_0 = 1
 one_parent_6: edge_0_6_0_0 + edge_2_6_0_0 + edge_3_6_0_0 + edge_4_6_0_0
   + edge_5_6_0_0 + edge_7_6_0_0 + edge_8_6_0_0 + edge_9_6_0_0
   + edge_10_6_0_0 + edge_11_6_0_0 + edge_12_6_0_0 + edge_13_6_0_0 = 1
 consume_one_flow_unit_6: flow_0_6_0_0 + flow_2_6_0_0 + flow_3_6_0_0
   + flow_4_6_0_0 + flow_5_6_0_0 - flow_6_1_0_0 - flow_6_2_0_0
   - flow_6_3_0_0 - flow_6_4_0_0 - flow_6_5_0_0 - flow_6_7_0_0
   - flow_6_8_0_0 - flow_6_10_0_0 - flow_6_11_0_0 - flow_6_12_0_0
   - flow_6_13_0_0 - flow_6_14_0_0 + flow_7_6_0_0 + flow_8_6_0_0
   + flow_9_6_0_0 + flow_10_6_0_0 + flow_11_6_0_0 + flow_12_6_0_0
   + flow_13_6_0_0 = 1
 one_parent_7: edge_3_7_0_0 + edge_4_7_0_0 + edge_5_7_0_0 + edge_6_7_0_0
   + edge_8_7_0_0 + edge_10_7_0_0 + edge_11_7_0_0 + edge_12_7_0_0
   + edge_13_7_0_0 = 1
 consume_one_flow_unit_7: flow_3_7_0_0 + flow_4_7_0_0 + flow_5_7_0_0
   + flow_6_7_0_0 - flow_7_4_0_0 - flow_7_5_0_0 - flow_7_6_0_0
   - flow_7_8_0_0 - flow_7_12_0_0 - flow_7_13_0_0 - flow_7_14_0_0
   + flow_8_7_0_0 + flow_10_7_0_0 + flow_11_7_0_0 + flow_12_7_0_0
   + flow_13_7_0_0 = 1
 one_parent_8: edge_0_8_0_0 + edge_2_8_0_0 + edge_3_8_0_0 + edge_5_8_0_0
   + edge_6_8_0_0 + edge_7_8_0_0 + edge_9_8_0_0 + edge_10_8_0_0
   + edge_11_8_0_0 + edge_12_8_0_0 + edge_13_8_0_0 = 1
 consume_one_flow_unit_8: flow_0_8_0_0 + flow_2_8_0_0 + flow_3_8_0_0
   + flow_5_8_0_0 + flow_6_8_0_0 + flow_7_8_0_0 - flow_8_1_0_0
   - flow_8_2_0_0 - flow_8_3_0_0 - flow_8_4_0_0 - flow_8_5_0_0
   - flow_8_6_0_0 - flow_8_7_0_0 - flow_8_9_0_0 - flow_8_10_0_0
   - flow_8_11_0_0 - flow_8_12_0_0 - flow_8_13_0_0 - flow_8_14_0_0
   + flow_9_8_0_0 + flow_10_8_0_0 + flow_11_8_0_0 + flow_12_8_0_0
   + flow_13_8_0_0 = 1
 one_parent_9: edge_0_9_0_0 + edge_2_9_0_0 + edge_3_9_0_0 + edge_4_9_0_0
   + edge_8_9_0_0 + edge_10_9_0_0 + edge_11_9_0_0 + edge_13_9_0_0 = 1
 consume_one_flow_unit_9: flow_0_9_0_0 + flow_2_9_0_0 + flow_3_9_0_0
   + flow_4_9_0_0 + flow_8_9_0_0 - flow_9_2_0_0 - flow_9_3_0_0
   - flow_9_4_0_0 - flow_9_5_0_0 - flow_9_6_0_0 - flow_9_8_0_0
   - flow_9_10_0_0 - flow_9_11_0_0 - flow_9_13_0_0 - flow_9_14_0_0
   + flow_10_9_0_0 + flow_11_9_0_0 + flow_13_9_0_0 = 1
 one_parent_10: edge_0_10_0_0 + edge_2_10_0_0 + edge_3_10_0_0
   + edge_6_10_0_0 + edge_8_10_0_0 + edge_9_10_0_0 + edge_11_10_0_0
   + edge_13_10_0_0 = 1
 consume_one_flow_unit_10: flow_0_10_0_0 + flow_2_10_0_0 + flow_3_10_0_0
   + flow_6_10_0_0 + flow_8_10_0_0 + flow_9_10_0_0 - flow_10_2_0_0
   - flow_10_4_0_0 - flow_10_5_0_0 - flow_10_6_0_0 - flow_10_7_0_0
   - flow_10_8_0_0 - flow_10_9_0_0 - flow_10_11_0_0 - flow_10_12_0_0
   - flow_10_13_0_0 - flow_10_14_0_0 + flow_11_10_0_0 + flow_13_10_0_0 = 1
 one_parent_11: edge_0_11_0_0 + edge_1_11_0_0 + edge_2_11_0_0
   + edge_3_11_0_0 + edge_4_11_0_0 + edge_6_11_0_0 + edge_8_11_0_0
   + edge_9_11_0_0 + edge_10_11_0_0 + edge_13_11_0_0 = 1
 consume_one_flow_unit_11: flow_0_11_0_0 + flow_1_11_0_0 + flow_2_11_0_0
   + flow_3_11_0_0 + flow_4_11_0_0 + flow_6_11_0_0 + flow_8_11_0_0
   + flow_9_11_0_0 + flow_10_11_0_0 - flow_11_1_0_0 - flow_11_2_0_0
   - flow_11_3_0_0 - flow_11_4_0_0 - flow_11_5_0_0 - flow_11_6_0_0
   - flow_11_7_0_0 - flow_11_8_0_0 - flow_11_9_0_0 - flow_11_10_0_0
   - flow_11_12_0_0 - flow_11_13_0_0 - flow_11_14_0_0 + flow_13_11_0_0 = 1
 one_parent_12: edge_0_12_0_0 + edge_3_12_0_0 + edge_5_12_0_0
   + edge_6_12_0_0 + edge_7_12_0_0 + edge_8_12_0_0 + edge_10_12_0_0
   + edge_11_12_0_0 + edge_13_12_0_0 = 1
 consume_one_flow_unit_12: flow_0_12_0_0 + flow_3_12_0_0 + flow_5_12_0_0
   + flow_6_12_0_0 + flow_7_12_0_0 + flow_8_12_0_0 + flow_10_12_0_0
   + flow_11_12_0_0 - flow_12_1_0_0 - flow_12_2_0_0 - flow_12_3_0_0
   - flow_12_4_0_0 - flow_12_5_0_0 - flow_12_6_0_0 - flow_12_7_0_0
   - flow_12_8_0_0 - flow_12_14_0_0 + flow_13_12_0_0 = 1
 one_parent_13: edge_0_13_0_0 + edge_2_13_0_0 + edge_3_13_0_0
   + edge_5_13_0_0 + edge_6_13_0_0 + edge_7_13_0_0 + edge_8_13_0_0
   + edge_9_13_0_0 + edge_10_13_0_0 + edge_11_13_0_0 = 1
 consume_one_flow_unit_13: flow_0_13_0_0 + flow_2_13_0_0 + flow_3_13_0_0
   + flow_5_13_0_0 + flow_6_13_0_0 + flow_7_13_0_0 + flow_8_13_0_0
   + flow_9_13_0_0 + flow_10_13_0_0 + flow_11_13_0_0 - flow_13_1_0_0
   - flow_13_2_0_0 - flow_13_3_0_0 - flow_13_4_0_0 - flow_13_5_0_0
   - flow_13_6_0_0 - flow_13_7_0_0 - flow_13_8_0_0 - flow_13_9_0_0
   - flow_13_10_0_0 - flow_13_11_0_0 - flow_13_12_0_0 - flow_13_14_0_0 = 1
 one_parent_14: edge_2_14_0_0 + edge_3_14_0_0 + edge_4_14_0_0
   + edge_6_14_0_0 + edge_7_14_0_0 + edge_8_14_0_0 + edge_9_14_0_0
   + edge_10_14_0_0 + edge_11_14_0_0 + edge_12_14_0_0 + edge_13_14_0_0 = 1
 consume_one_flow_unit_14: flow_2_14_0_0 + flow_3_14_0_0 + flow_4_14_0_0
   + flow_6_14_0_0 + flow_7_14_0_0 + flow_8_14_0_0 + flow_9_14_0_0
   + flow_10_14_0_0 + flow_11_14_0_0 + flow_12_14_0_0 + flow_13_14_0_0 = 1
 root_flow: flow_0_1_0_0 + flow_0_2_0_0 + flow_0_3_0_0 + flow_0_4_0_0
   + flow_0_6_0_0 + flow_0_8_0_0 + flow_0_9_0_0 + flow_0_10_0_0
   + flow_0_11_0_0 + flow_0_12_0_0 + flow_0_13_0_0 = 14
 inactive_no_flow_0_1_0_0: flow_0_1_0_0 - 1000 edge_0_1_0_0 <= 0
 inactive_no_flow_0_2_0_0: flow_0_2_0_0 - 1000 edge_0_2_0_0 <= 0
 inactive_no_flow_0_3_0_0: flow_0_3_0_0 - 1000 edge_0_3_0_0 <= 0
 inactive_no_flow_0_4_0_0: flow_0_4_0_0 - 1000 edge_0_4_0_0 <= 0
 inactive_no_flow_0_6_0_0: flow_0_6_0_0 - 1000 edge_0_6_0_0 <= 0
 inactive_no_flow_0_8_0_0: flow_0_8_0_0 - 1000 edge_0_8_0_0 <= 0
 inactive_no_flow_0_9_0_0: flow_0_9_0_0 - 1000 edge_0_9_0_0 <= 0
 inactive_no_flow_0_10_0_0: flow_0_10_0_0 - 1000 edge_0_10_0_0 <= 0
 inactive_no_flow_0_11_0_0: flow_0_11_0_0 - 1000 edge_0_11_0_0 <= 0
 inactive_no_flow_0_12_0_0: flow_0_12_0_0 - 1000 edge_0_12_0_0 <= 0
 inactive_no_flow_0_13_0_0: flow_0_13_0_0 - 1000 edge_0_13_0_0 <= 0
 inactive_no_flow_1_2_0_0: flow_1_2_0_0 - 1000 edge_1_2_0_0 <= 0
 inactive_no_flow_1_3_0_0: flow_1_3_0_0 - 1000 edge_1_3_0_0 <= 0
 inactive_no_flow_1_11_0_0: flow_1_11_0_0 - 1000 edge_1_11_0_0 <= 0
 inactive_no_flow_2_1_0_0: flow_2_1_0_0 - 1000 edge_2_1_0_0 <= 0
 inactive_no_flow_2_2_0_0: flow_2_2_0_0 - 1000 edge_2_2_0_0 <= 0
 inactive_no_flow_2_3_0_0: flow_2_3_0_0 - 1000 edge_2_3_0_0 <= 0
 inactive_no_flow_2_4_0_0: flow_2_4_0_0 - 1000 edge_2_4_0_0 <= 0
 inactive_no_flow_2_5_0_0: flow_2_5_0_0 - 1000 edge_2_5_0_0 <= 0
 inactive_no_flow_2_6_0_0: flow_2_6_0_0 - 1000 edge_2_6_0_0 <= 0
 inactive_no_flow_2_8_0_0: flow_2_8_0_0 - 1000 edge_2_8_0_0 <= 0
 inactive_no_flow_2_9_0_0: flow_2_9_0_0 - 1000 edge_2_9_0_0 <= 0
 inactive_no_flow_2_10_0_0: flow_2_10_0_0 - 1000 edge_2_10_0_0 <= 0
 inactive_no_flow_2_11_0_0: flow_2_11_0_0 - 1000 edge_2_11_0_0 <= 0
 inactive_no_flow_2_13_0_0: flow_2_13_0_0 - 1000 edge_2_13_0_0 <= 0
 inactive_no_flow_2_14_0_0: flow_2_14_0_0 - 1000 edge_2_14_0_0 <= 0
 inactive_no_flow_3_1_0_0: flow_3_1_0_0 - 1000 edge_3_1_0_0 <= 0
 inactive_no_flow_3_2_0_0: flow_3_2_0_0 - 1000 edge_3_2_0_0 <= 0
 inactive_no_flow_3_4_0_0: flow_3_4_0_0 - 1000 edge_3_4_0_0 <= 0
 inactive_no_flow_3_5_0_0: flow_3_5_0_0 - 1000 edge_3_5_0_0 <= 0
 inactive_no_flow_3_6_0_0: flow_3_6_0_0 - 1000 edge_3_6_0_0 <= 0
 inactive_no_flow_3_7_0_0: flow_3_7_0_0 - 1000 edge_3_7_0_0 <= 0
 inactive_no_flow_3_8_0_0: flow_3_8_0_0 - 1000 edge_3_8_0_0 <= 0
 inactive_no_flow_3_9_0_0: flow_3_9_0_0 - 1000 edge_3_9_0_0 <= 0
 inactive_no_flow_3_10_0_0: flow_3_10_0_0 - 1000 edge_3_10_0_0 <= 0
 inactive_no_flow_3_11_0_0: flow_3_11_0_0 - 1000 edge_3_11_0_0 <= 0
 inactive_no_flow_3_12_0_0: flow_3_12_0_0 - 1000 edge_3_12_0_0 <= 0
 inactive_no_flow_3_13_0_0: flow_3_13_0_0 - 1000 edge_3_13_0_0 <= 0
 inactive_no_flow_3_14_0_0: flow_3_14_0_0 - 1000 edge_3_14_0_0 <= 0
 inactive_no_flow_4_1_0_0: flow_4_1_0_0 - 1000 edge_4_1_0_0 <= 0
 inactive_no_flow_4_2_0_0: flow_4_2_0_0 - 1000 edge_4_2_0_0 <= 0
 inactive_no_flow_4_3_0_0: flow_4_3_0_0 - 1000 edge_4_3_0_0 <= 0
 inactive_no_flow_4_5_0_0: flow_4_5_0_0 - 1000 edge_4_5_0_0 <= 0
 inactive_no_flow_4_6_0_0: flow_4_6_0_0 - 1000 edge_4_6_0_0 <= 0
 inactive_no_flow_4_7_0_0: flow_4_7_0_0 - 1000 edge_4_7_0_0 <= 0
 inactive_no_flow_4_9_0_0: flow_4_9_0_0 - 1000 edge_4_9_0_0 <= 0
 inactive_no_flow_4_11_0_0: flow_4_11_0_0 - 1000 edge_4_11_0_0 <= 0
 inactive_no_flow_4_14_0_0: flow_4_14_0_0 - 1000 edge_4_14_0_0 <= 0
 inactive_no_flow_5_4_0_0: flow_5_4_0_0 - 1000 edge_5_4_0_0 <= 0
 inactive_no_flow_5_6_0_0: flow_5_6_0_0 - 1000 edge_5_6_0_0 <= 0
 inactive_no_flow_5_7_0_0: flow_5_7_0_0 - 1000 edge_5_7_0_0 <= 0
 inactive_no_flow_5_8_0_0: flow_5_8_0_0 - 1000 edge_5_8_0_0 <= 0
 inactive_no_flow_5_12_0_0: flow_5_12_0_0 - 1000 edge_5_12_0_0 <= 0
 inactive_no_flow_5_13_0_0: flow_5_13_0_0 - 1000 edge_5_13_0_0 <= 0
 inactive_no_flow_6_1_0_0: flow_6_1_0_0 - 1000 edge_6_1_0_0 <= 0
 inactive_no_flow_6_2_0_0: flow_6_2_0_0 - 1000 edge_6_2_0_0 <= 0
 inactive_no_flow_6_3_0_0: flow_6_3_0_0 - 1000 edge_6_3_0_0 <= 0
 inactive_no_flow_6_4_0_0: flow_6_4_0_0 - 1000 edge_6_4_0_0 <= 0
 inactive_no_flow_6_5_0_0: flow_6_5_0_0 - 1000 edge_6_5_0_0 <= 0
 inactive_no_flow_6_7_0_0: flow_6_7_0_0 - 1000 edge_6_7_0_0 <= 0
 inactive_no_flow_6_8_0_0: flow_6_8_0_0 - 1000 edge_6_8_0_0 <= 0
 inactive_no_flow_6_10_0_0: flow_6_10_0_0 - 1000 edge_6_10_0_0 <= 0
 inactive_no_flow_6_11_0_0: flow_6_11_0_0 - 1000 edge_6_11_0_0 <= 0
 inactive_no_flow_6_12_0_0: flow_6_12_0_0 - 1000 edge_6_12_0_0 <= 0
 inactive_no_flow_6_13_0_0: flow_6_13_0_0 - 1000 edge_6_13_0_0 <= 0
 inactive_no_flow_6_14_0_0: flow_6_14_0_0 - 1000 edge_6_14_0_0 <= 0
 inactive_no_flow_7_4_0_0: flow_7_4_0_0 - 1000 edge_7_4_0_0 <= 0
 inactive_no_flow_7_5_0_0: flow_7_5_0_0 - 1000 edge_7_5_0_0 <= 0
 inactive_no_flow_7_6_0_0: flow_7_6_0_0 - 1000 edge_7_6_0_0 <= 0
 inactive_no_flow_7_8_0_0: flow_7_8_0_0 - 1000 edge_7_8_0_0 <= 0
 inactive_no_flow_7_12_0_0: flow_7_12_0_0 - 1000 edge_7_12_0_0 <= 0
 inactive_no_flow_7_13_0_0: flow_7_13_0_0 - 1000 edge_7_13_0_0 <= 0
 inactive_no_flow_7_14_0_0: flow_7_14_0_0 - 1000 edge_7_14_0_0 <= 0
 inactive_no_flow_8_1_0_0: flow_8_1_0_0 - 1000 edge_8_1_0_0 <= 0
 inactive_no_flow_8_2_0_0: flow_8_2_0_0 - 1000 edge_8_2_0_0 <= 0
 inactive_no_flow_8_3_0_0: flow_8_3_0_0 - 1000 edge_8_3_0_0 <= 0
 inactive_no_flow_8_4_0_0: flow_8_4_0_0 - 1000 edge_8_4_0_0 <= 0
 inactive_no_flow_8_5_0_0: flow_8_5_0_0 - 1000 edge_8_5_0_0 <= 0
 inactive_no_flow_8_6_0_0: flow_8_6_0_0 - 1000 edge_8_6_0_0 <= 0
 inactive_no_flow_8_7_0_0: flow_8_7_0_0 - 1000 edge_8_7_0_0 <= 0
 inactive_no_flow_8_9_0_0: flow_8_9_0_0 - 1000 edge_8_9_0_0 <= 0
 inactive_no_flow_8_10_0_0: flow_8_10_0_0 - 1000 edge_8_10_0_0 <= 0
 inactive_no_flow_8_11_0_0: flow_8_11_0_0 - 1000 edge_8_11_0_0 <= 0
 inactive_no_flow_8_12_0_0: flow_8_12_0_0 - 1000 edge_8_12_0_0 <= 0
 inactive_no_flow_8_13_0_0: flow_8_13_0_0 - 1000 edge_8_13_0_0 <= 0
 inactive_no_flow_8_14_0_0: flow_8_14_0_0 - 1000 edge_8_14_0_0 <= 0
 inactive_no_flow_9_2_0_0: flow_9_2_0_0 - 1000 edge_9_2_0_0 <= 0
 inactive_no_flow_9_3_0_0: flow_9_3_0_0 - 1000 edge_9_3_0_0 <= 0
 inactive_no_flow_9_4_0_0: flow_9_4_0_0 - 1000 edge_9_4_0_0 <= 0
 inactive_no_flow_9_5_0_0: flow_9_5_0_0 - 1000 edge_9_5_0_0 <= 0
 inactive_no_flow_9_6_0_0: flow_9_6_0_0 - 1000 edge_9_6_0_0 <= 0
 inactive_no_flow_9_8_0_0: flow_9_8_0_0 - 1000 edge_9_8_0_0 <= 0
 inactive_no_flow_9_10_0_0: flow_9_10_0_0 - 1000 edge_9_10_0_0 <= 0
 inactive_no_flow_9_11_0_0: flow_9_11_0_0 - 1000 edge_9_11_0_0 <= 0
 inactive_no_flow_9_13_0_0: flow_9_13_0_0 - 1000 edge_9_13_0_0 <= 0
 inactive_no_flow_9_14_0_0: flow_9_14_0_0 - 1000 edge_9_14_0_0 <= 0
 inactive_no_flow_10_2_0_0: flow_10_2_0_0 - 1000 edge_10_2_0_0 <= 0
 inactive_no_flow_10_4_0_0: flow_10_4_0_0 - 1000 edge_10_4_0_0 <= 0
 inactive_no_flow_10_5_0_0: flow_10_5_0_0 - 1000 edge_10_5_0_0 <= 0
 inactive_no_flow_10_6_0_0: flow_10_6_0_0 - 1000 edge_10_6_0_0 <= 0
 inactive_no_flow_10_7_0_0: flow_10_7_0_0 - 1000 edge_10_7_0_0 <= 0
 inactive_no_flow_10_8_0_0: flow_10_8_0_0 - 1000 edge_10_8_0_0 <= 0
 inactive_no_flow_10_9_0_0: flow_10_9_0_0 - 1000 edge_10_9_0_0 <= 0
 inactive_no_flow_10_11_0_0: flow_10_11_0_0 - 1000 edge_10_11_0_0 <= 0
 inactive_no_flow_10_12_0_0: flow_10_12_0_0 - 1000 edge_10_12_0_0 <= 0
 inactive_no_flow_10_13_0_0: flow_10_13_0_0 - 1000 edge_10_13_0_0 <= 0
 inactive_no_flow_10_14_0_0: flow_10_14_0_0 - 1000 edge_10_14_0_0 <= 0
 inactive_no_flow_11_1_0_0: flow_11_1_0_0 - 1000 edge_11_1_0_0 <= 0
 inactive_no_flow_11_2_0_0: flow_11_2_0_0 - 1000 edge_11_2_0_0 <= 0
 inactive_no_flow_11_3_0_0: flow_11_3_0_0 - 1000 edge_11_3_0_0 <= 0
 inactive_no_flow_11_4_0_0: flow_11_4_0_0 - 1000 edge_11_4_0_0 <= 0
 inactive_no_flow_11_5_0_0: flow_11_5_0_0 - 1000 edge_11_5_0_0 <= 0
 inactive_no_flow_11_6_0_0: flow_11_6_0_0 - 1000 edge_11_6_0_0 <= 0
 inactive_no_flow_11_7_0_0: flow_11_7_0_0 - 1000 edge_11_7_0_0 <= 0
 inactive_no_flow_11_8_0_0: flow_11_8_0_0 - 1000 edge_11_8_0_0 <= 0
 inactive_no_flow_11_9_0_0: flow_11_9_0_0 - 1000 edge_11_9_0_0 <= 0
 inactive_no_flow_11_10_0_0: flow_11_10_0_0 - 1000 edge_11_10_0_0 <= 0
 inactive_no_flow_11_12_0_0: flow_11_12_0_0 - 1000 edge_11_12_0_0 <= 0
 inactive_no_flow_11_13_0_0: flow_11_13_0_0 - 1000 edge_11_13_0_0 <= 0
 inactive_no_flow_11_14_0_0: flow_11_14_0_0 - 1000 edge_11_14_0_0 <= 0
 inactive_no_flow_12_1_0_0: flow_12_1_0_0 - 1000 edge_12_1_0_0 <= 0
 inactive_no_flow_12_2_0_0: flow_12_2_0_0 - 1000 edge_12_2_0_0 <= 0
 inactive_no_flow_12_3_0_0: flow_12_3_0_0 - 1000 edge_12_3_0_0 <= 0
 inactive_no_flow_12_4_0_0: flow_12_4_0_0 - 1000 edge_12_4_0_0 <= 0
 inactive_no_flow_12_5_0_0: flow_12_5_0_0 - 1000 edge_12_5_0_0 <= 0
 inactive_no_flow_12_6_0_0: flow_12_6_0_0 - 1000 edge_12_6_0_0 <= 0
 inactive_no_flow_12_7_0_0: flow_12_7_0_0 - 1000 edge_12_7_0_0 <= 0
 inactive_no_flow_12_8_0_0: flow_12_8_0_0 - 1000 edge_12_8_0_0 <= 0
 inactive_no_flow_12_14_0_0: flow_12_14_0_0 - 1000 edge_12_14_0_0 <= 0
 inactive_no_flow_13_1_0_0: flow_13_1_0_0 - 1000 edge_13_1_0_0 <= 0
 inactive_no_flow_13_2_0_0: flow_13_2_0_0 - 1000 edge_13_2_0_0 <= 0
 inactive_no_flow_13_3_0_0: flow_13_3_0_0 - 1000 edge_13_3_0_0 <= 0
 inactive_no_flow_13_4_0_0: flow_13_4_0_0 - 1000 edge_13_4_0_0 <= 0
 inactive_no_flow_13_5_0_0: flow_13_5_0_0 - 1000 edge_13_5_0_0 <= 0
 inactive_no_flow_13_6_0_0: flow_13_6_0_0 - 1000 edge_13_6_0_0 <= 0
 inactive_no_flow_13_7_0_0: flow_13_7_0_0 - 1000 edge_13_7_0_0 <= 0
 inactive_no_flow_13_8_0_0: flow_13_8_0_0 - 1000 edge_13_8_0_0 <= 0
 inactive_no_flow_13_9_0_0: flow_13_9_0_0 - 1000 edge_13_9_0_0 <= 0
 inactive_no_flow_13_10_0_0: flow_13_10_0_0 - 1000 edge_13_10_0_0 <= 0
 inactive_no_flow_13_11_0_0: flow_13_11_0_0 - 1000 edge_13_11_0_0 <= 0
 inactive_no_flow_13_12_0_0: flow_13_12_0_0 - 1000 edge_13_12_0_0 <= 0
 inactive_no_flow_13_14_0_0: flow_13_14_0_0 - 1000 edge_13_14_0_0 <= 0
Bounds
Binaries
 edge_0_1_0_0 edge_0_2_0_0 edge_0_3_0_0 edge_0_4_0_0 edge_0_6_0_0
 edge_0_8_0_0 edge_0_9_0_0 edge_0_10_0_0 edge_0_11_0_0 edge_0_12_0_0
 edge_0_13_0_0 edge_1_2_0_0 edge_1_3_0_0 edge_1_11_0_0 edge_2_1_0_0
 edge_2_2_0_0 edge_2_3_0_0 edge_2_4_0_0 edge_2_5_0_0 edge_2_6_0_0
 edge_2_8_0_0 edge_2_9_0_0 edge_2_10_0_0 edge_2_11_0_0 edge_2_13_0_0
 edge_2_14_0_0 edge_3_1_0_0 edge_3_2_0_0 edge_3_4_0_0 edge_3_5_0_0
 edge_3_6_0_0 edge_3_7_0_0 edge_3_8_0_0 edge_3_9_0_0 edge_3_10_0_0
 edge_3_11_0_0 edge_3_12_0_0 edge_3_13_0_0 edge_3_14_0_0 edge_4_1_0_0
 edge_4_2_0_0 edge_4_3_0_0 edge_4_5_0_0 edge_4_6_0_0 edge_4_7_0_0
 edge_4_9_0_0 edge_4_11_0_0 edge_4_14_0_0 edge_5_4_0_0 edge_5_6_0_0
 edge_5_7_0_0 edge_5_8_0_0 edge_5_12_0_0 edge_5_13_0_0 edge_6_1_0_0
 edge_6_2_0_0 edge_6_3_0_0 edge_6_4_0_0 edge_6_5_0_0 edge_6_7_0_0
 edge_6_8_0_0 edge_6_10_0_0 edge_6_11_0_0 edge_6_12_0_0 edge_6_13_0_0
 edge_6_14_0_0 edge_7_4_0_0 edge_7_5_0_0 edge_7_6_0_0 edge_7_8_0_0
 edge_7_12_0_0 edge_7_13_0_0 edge_7_14_0_0 edge_8_1_0_0 edge_8_2_0_0
 edge_8_3_0_0 edge_8_4_0_0 edge_8_5_0_0 edge_8_6_0_0 edge_8_7_0_0
 edge_8_9_0_0 edge_8_10_0_0 edge_8_11_0_0 edge_8_12_0_0 edge_8_13_0_0
 edge_8_14_0_0 edge_9_2_0_0 edge_9_3_0_0 edge_9_4_0_0 edge_9_5_0_0
 edge_9_6_0_0 edge_9_8_0_0 edge_9_10_0_0 edge_9_11_0_0 edge_9_13_0_0
 edge_9_14_0_0 edge_10_2_0_0 edge_10_4_0_0 edge_10_5_0_0 edge_10_6_0_0
 edge_10_7_0_0 edge_10_8_0_0 edge_10_9_0_0 edge_10_11_0_0 edge_10_12_0_0
 edge_10_13_0_0 edge_10_14_0_0 edge_11_1_0_0 edge_11_2_0_0 edge_11_3_0_0
 edge_11_4_0_0 edge_11_5_0_0 edge_11_6_0_0 edge_11_7_0_0 edge_11_8_0_0
 edge_11_9_0_0 edge_11_10_0_0 edge_11_12_0_0 edge_11_13_0_0 edge_11_14_0_0
 edge_12_1_0_0 edge_12_2_0_0 edge_12_3_0_0 edge_12_4_0_0 edge_12_5_0_0
 edge_12_6_0_0 edge_12_7_0_0 edge_12_8_0_0 edge_12_14_0_0 edge_13_1_0_0
 edge_13_2_0_0 edge_13_3_0_0 edge_13_4_0_0 edge_13_5_0_0 edge_13_6_0_0
 edge_13_7_0_0 edge_13_8_0_0 edge_13_9_0_0 edge_13_10_0_0 edge_13_11_0_0
 edge_13_12_0_0 edge_13_14_0_0
End
